
Starting CP-SAT solver v9.15.6755
Parameters: random_seed: 2026073392 max_time_in_seconds: 10409.999999199 log_search_progress: true cp_model_presolve: true linearization_level: 2 num_search_workers: 4 cp_model_probing_level: 2 symmetry_level: 2

Initial satisfaction model '': (model_fingerprint: 0x683e5d6d9bd5f24f)
#Variables: 724 (608 primary variables)
  - 724 Booleans in [0,1]
#kBoolAnd: 110 (#enforced: 110) (#literals: 330)
#kBoolOr: 110 (#enforced: 110) (#literals: 220)
#kExactlyOne: 87 (#literals: 261)
#kLinear1: 32 (#enforced: 6)
#kLinear2: 336 (#enforced: 336) (#complex_domain: 110)
#kLinear3: 1'600 (#enforced: 6)
#kLinearN: 1'132 (#enforced: 243) (#terms: 9'111)

Starting presolve at 0.00s
  7.30e-04s  0.00e+00d  [DetectDominanceRelations] 
  9.06e-03s  0.00e+00d  [PresolveToFixPoint] #num_loops=3 #num_dual_strengthening=1 
  3.60e-05s  0.00e+00d  [ExtractEncodingFromLinear] #potential_supersets=86 
  3.05e-04s  0.00e+00d  [DetectDuplicateColumns] 
  1.01e-04s  0.00e+00d  [DetectDuplicateConstraints] #duplicates=5 
[Symmetry] Graph for symmetry has 4'868 nodes and 15'708 arcs.
[Symmetry] Symmetry computation done. time: 0.00132482 dtime: 0.00181388
[SAT presolve] num removable Booleans: 220 / 626
[SAT presolve] num trivial clauses: 0
[SAT presolve] [0s] clauses:2'732 literals:7'430 vars:506 one_side_vars:66 simple_definition:1 singleton_clauses:0
[SAT presolve] [0.000236322s] clauses:2'731 literals:7'423 vars:506 one_side_vars:66 simple_definition:1 singleton_clauses:0
[SAT presolve] [0.000710668s] clauses:2'247 literals:6'594 vars:381 one_side_vars:71 simple_definition:71 singleton_clauses:0
  1.24e-04s  0.00e+00d  [DetectDuplicateConstraintsWithDifferentEnforcements] #without_enforcements=4 
  5.51e-03s  2.25e-03d  [Probe] #probed=1'305 #fixed_bools=11 #equiv=7 #new_binary_clauses=945 
  4.95e-04s  2.94e-04d  [MaxClique] Merged 587 constraints with 1'313 literals into 505 constraints with 1'179 literals
  9.41e-04s  0.00e+00d  [DetectDominanceRelations] 
  3.20e-03s  0.00e+00d  [PresolveToFixPoint] #num_loops=1 #num_dual_strengthening=1 
  1.26e-03s  0.00e+00d  [ProcessAtMostOneAndLinear] 
  1.17e-04s  0.00e+00d  [DetectDuplicateConstraints] #duplicates=6 
  8.55e-05s  0.00e+00d  [DetectDuplicateConstraintsWithDifferentEnforcements] 
  2.76e-03s  8.98e-05d  [DetectDominatedLinearConstraints] #relevant_constraints=828 #num_inclusions=450 #num_redundant=7 
  1.45e-04s  0.00e+00d  [DetectDifferentVariables] 
  7.82e-04s  8.31e-05d  [ProcessSetPPC] #relevant_constraints=3'000 #num_inclusions=83 
  3.11e-04s  3.36e-05d  [TransformClausesToExactlyOne] #num_amos=509 #num_clauses=1'672 #num_checked=1'672 
  5.00e-05s  0.00e+00d  [DetectEncodedComplexDomains] 
  3.02e-05s  0.00e+00d  [FindAlmostIdenticalLinearConstraints] 
  1.00e-03s  1.42e-03d  [FindBigAtMostOneAndLinearOverlap] 
  1.56e-03s  1.15e-03d  [FindBigVerticalLinearOverlap] #blocks=4 #saved_nz=172 
  3.62e-04s  5.88e-04d  [FindBigHorizontalLinearOverlap] #linears=458 
  3.36e-04s  2.69e-05d  [MergeClauses] #num_collisions=19 #num_merges=19 #num_saved_literals=95 
  9.54e-04s  0.00e+00d  [DetectDominanceRelations] 
  3.20e-03s  0.00e+00d  [PresolveToFixPoint] #num_loops=2 #num_dual_strengthening=1 
  8.94e-04s  0.00e+00d  [DetectDominanceRelations] 
  3.14e-03s  0.00e+00d  [PresolveToFixPoint] #num_loops=1 #num_dual_strengthening=1 
  2.16e-04s  0.00e+00d  [DetectDuplicateColumns] 
  9.99e-05s  0.00e+00d  [DetectDuplicateConstraints] 
[Symmetry] Graph for symmetry has 4'301 nodes and 13'515 arcs.
[Symmetry] Symmetry computation done. time: 0.00100433 dtime: 0.0014112
[SAT presolve] num removable Booleans: 94 / 482
[SAT presolve] num trivial clauses: 0
[SAT presolve] [0s] clauses:2'131 literals:6'306 vars:453 one_side_vars:149 simple_definition:82 singleton_clauses:0
[SAT presolve] [0.000236692s] clauses:2'131 literals:6'136 vars:453 one_side_vars:194 simple_definition:65 singleton_clauses:0
[SAT presolve] [0.00032936s] clauses:2'121 literals:6'128 vars:449 one_side_vars:197 simple_definition:53 singleton_clauses:0
  1.56e-04s  0.00e+00d  [DetectDuplicateConstraintsWithDifferentEnforcements] #without_enforcements=1 
  4.75e-03s  1.82e-03d  [Probe] #probed=1'294 #new_binary_clauses=612 
  4.19e-04s  3.13e-04d  [MaxClique] Merged 503 constraints with 1'113 literals into 496 constraints with 1'111 literals
  9.20e-04s  0.00e+00d  [DetectDominanceRelations] 
  3.10e-03s  0.00e+00d  [PresolveToFixPoint] #num_loops=1 #num_dual_strengthening=1 
  1.14e-03s  0.00e+00d  [ProcessAtMostOneAndLinear] 
  1.29e-04s  0.00e+00d  [DetectDuplicateConstraints] 
  8.65e-05s  0.00e+00d  [DetectDuplicateConstraintsWithDifferentEnforcements] 
  9.04e-04s  5.76e-05d  [DetectDominatedLinearConstraints] #relevant_constraints=814 #num_inclusions=310 #num_redundant=1 
  1.27e-04s  0.00e+00d  [DetectDifferentVariables] 
  7.87e-04s  7.34e-05d  [ProcessSetPPC] #relevant_constraints=3'027 #num_inclusions=92 
  2.86e-04s  3.29e-05d  [TransformClausesToExactlyOne] #num_amos=497 #num_clauses=1'665 #num_checked=1'665 
  5.48e-05s  0.00e+00d  [DetectEncodedComplexDomains] 
  3.48e-05s  2.00e-07d  [FindAlmostIdenticalLinearConstraints] #num_tested_pairs=2 
  9.27e-04s  1.14e-03d  [FindBigAtMostOneAndLinearOverlap] 
  1.35e-03s  9.90e-04d  [FindBigVerticalLinearOverlap] #blocks=1 #saved_nz=31 
  3.21e-04s  5.15e-04d  [FindBigHorizontalLinearOverlap] #linears=456 
  3.51e-04s  2.60e-05d  [MergeClauses] #num_collisions=72 #num_merges=72 #num_saved_literals=210 
  9.35e-04s  0.00e+00d  [DetectDominanceRelations] 
  3.13e-03s  0.00e+00d  [PresolveToFixPoint] #num_loops=2 #num_dual_strengthening=1 
  9.11e-04s  0.00e+00d  [DetectDominanceRelations] 
  3.08e-03s  0.00e+00d  [PresolveToFixPoint] #num_loops=1 #num_dual_strengthening=1 
  2.08e-04s  0.00e+00d  [DetectDuplicateColumns] 
  8.96e-05s  0.00e+00d  [DetectDuplicateConstraints] 
[Symmetry] Graph for symmetry has 4'232 nodes and 13'126 arcs.
[Symmetry] Symmetry computation done. time: 0.000996572 dtime: 0.001397
[SAT presolve] num removable Booleans: 90 / 478
[SAT presolve] num trivial clauses: 0
[SAT presolve] [0s] clauses:2'110 literals:6'098 vars:449 one_side_vars:198 simple_definition:54 singleton_clauses:0
[SAT presolve] [0.000210643s] clauses:2'110 literals:6'098 vars:449 one_side_vars:198 simple_definition:54 singleton_clauses:0
[SAT presolve] [0.000278945s] clauses:2'110 literals:6'098 vars:449 one_side_vars:198 simple_definition:54 singleton_clauses:0
  1.17e-04s  0.00e+00d  [DetectDuplicateConstraintsWithDifferentEnforcements] 
  4.64e-03s  1.81e-03d  [Probe] #probed=1'294 #new_binary_clauses=611 
  4.29e-04s  3.07e-04d  [MaxClique] Merged 495 constraints with 1'097 literals into 494 constraints with 1'096 literals
  9.35e-04s  0.00e+00d  [DetectDominanceRelations] 
  3.12e-03s  0.00e+00d  [PresolveToFixPoint] #num_loops=1 #num_dual_strengthening=1 
  1.11e-03s  0.00e+00d  [ProcessAtMostOneAndLinear] 
  1.45e-04s  0.00e+00d  [DetectDuplicateConstraints] 
  9.48e-05s  0.00e+00d  [DetectDuplicateConstraintsWithDifferentEnforcements] 
  8.56e-04s  5.90e-05d  [DetectDominatedLinearConstraints] #relevant_constraints=812 #num_inclusions=321 
  1.33e-04s  0.00e+00d  [DetectDifferentVariables] 
  8.21e-04s  7.27e-05d  [ProcessSetPPC] #relevant_constraints=3'023 #num_inclusions=88 
  3.09e-04s  3.29e-05d  [TransformClausesToExactlyOne] #num_amos=494 #num_clauses=1'665 #num_checked=1'665 
  5.07e-05s  0.00e+00d  [DetectEncodedComplexDomains] 
  3.94e-05s  1.00e-07d  [FindAlmostIdenticalLinearConstraints] #num_tested_pairs=1 
  9.00e-04s  1.11e-03d  [FindBigAtMostOneAndLinearOverlap] 
  1.31e-03s  9.44e-04d  [FindBigVerticalLinearOverlap] #blocks=2 #saved_nz=80 
  1.94e-04s  2.65e-04d  [FindBigHorizontalLinearOverlap] #linears=452 
  3.48e-04s  2.60e-05d  [MergeClauses] #num_collisions=72 #num_merges=72 #num_saved_literals=210 
  9.38e-04s  0.00e+00d  [DetectDominanceRelations] 
  3.15e-03s  0.00e+00d  [PresolveToFixPoint] #num_loops=2 #num_dual_strengthening=1 
  2.12e-05s  0.00e+00d  [MergeNoOverlap] 
  2.03e-05s  0.00e+00d  [MergeNoOverlap2D] 

Presolve summary:
  - 44 affine relations were detected.
  - rule 'TODO dual: only one blocking constraint?' was applied 870 times.
  - rule 'TODO dual: tighten at most one' was applied 8 times.
  - rule 'TODO linear inclusion: superset is equality' was applied 139 times.
  - rule 'affine: new relation' was applied 44 times.
  - rule 'at_most_one: removed literals' was applied 51 times.
  - rule 'at_most_one: size one' was applied 50 times.
  - rule 'at_most_one: transformed into max clique' was applied 3 times.
  - rule 'bool_or: implications' was applied 63 times.
  - rule 'bool_or: only one literal' was applied 12 times.
  - rule 'bool_or: removed enforcement literal' was applied 557 times.
  - rule 'deductions: 862 stored' was applied 1 time.
  - rule 'duplicate: merged rhs of linear constraint' was applied 10 times.
  - rule 'duplicate: removed constraint' was applied 11 times.
  - rule 'duplicate: removed enforced constraint' was applied 5 times.
  - rule 'enforcement: false literal' was applied 34 times.
  - rule 'enforcement: true literal' was applied 8 times.
  - rule 'exactly_one: removed literals' was applied 33 times.
  - rule 'exactly_one: satisfied' was applied 3 times.
  - rule 'exactly_one: singleton' was applied 3 times.
  - rule 'exactly_one: size two' was applied 30 times.
  - rule 'exactly_one: x and not(x)' was applied 5 times.
  - rule 'incompatible linear: add implication' was applied 129 times.
  - rule 'linear + amo: empty after processing' was applied 6 times.
  - rule 'linear + amo: extracted enforcement literal' was applied 56 times.
  - rule 'linear inclusion: redundant containing constraint' was applied 3 times.
  - rule 'linear inclusion: redundant included constraint' was applied 3 times.
  - rule 'linear inclusion: sparsify superset' was applied 2 times.
  - rule 'linear matrix: common vertical rectangle' was applied 7 times.
  - rule 'linear1: always true' was applied 7 times.
  - rule 'linear1: x in domain' was applied 26 times.
  - rule 'linear2: convert ax + by != cte to clauses' was applied 258 times.
  - rule 'linear2: convert implied ax + by == cte to clauses' was applied 114 times.
  - rule 'linear2: implied ax + by = cte has only one solution' was applied 8 times.
  - rule 'linear: always true' was applied 416 times.
  - rule 'linear: empty' was applied 15 times.
  - rule 'linear: enforcement literal in expression' was applied 14 times.
  - rule 'linear: extracted at most one (max)' was applied 1 time.
  - rule 'linear: fixed or dup variables' was applied 893 times.
  - rule 'linear: negative clause' was applied 1'299 times.
  - rule 'linear: negative reified and' was applied 78 times.
  - rule 'linear: never in domain' was applied 6 times.
  - rule 'linear: positive at most one' was applied 34 times.
  - rule 'linear: reduced variable domains' was applied 8 times.
  - rule 'linear: remapped using affine relations' was applied 46 times.
  - rule 'presolve: 77 unused variables removed.' was applied 1 time.
  - rule 'presolve: iteration' was applied 3 times.
  - rule 'probing: bool_or reduced to implication' was applied 27 times.
  - rule 'probing: simplified clauses' was applied 11 times.
  - rule 'setppc: bool_or in at_most_one' was applied 7 times.
  - rule 'setppc: removed dominated constraints' was applied 88 times.
  - rule 'variables: both boolean and its negation fix the same variable' was applied 7 times.
  - rule 'variables: detect half reified value encoding' was applied 14 times.

Presolved satisfaction model '': (model_fingerprint: 0x7d24cf940d79ed24)
#Variables: 478 (410 primary variables)
  - 478 Booleans in [0,1]
#kAtMostOne: 51 (#literals: 210)
#kBoolAnd: 262 (#enforced: 262) (#literals: 705)
#kBoolAndClauses: 72 (#enforced: 72 #multi: 72) (#literals: 354)
#kBoolOr: 1'521 (#literals: 4'644)
#kExactlyOne: 52 (#literals: 200)
#kLinearN: 808 (#enforced: 118) (#terms: 5'627)
[Symmetry] Graph for symmetry has 3'976 nodes and 13'033 arcs.
[Symmetry] Symmetry computation done. time: 0.000866259 dtime: 0.0013791

Preloading model.
#Model   0.10s var:478/478 constraints:2766/2766

Starting search at 0.10s with 4 workers.
3 full problem subsolvers: [default_lp, max_lp, no_lp]
1 first solution subsolver: [fj]
2 interleaved subsolvers: [feasibility_pump, rins/rens]
2 helper subsolvers: [neighborhood_helper, synchronization_agent]

#Model  50.07s var:477/478 constraints:2749/2766
#Model  83.85s var:476/478 constraints:2747/2766
#Model 309.13s var:475/478 constraints:2745/2766
#Model 9272.16s var:474/478 constraints:2726/2766

Task timing                   n [     min,      max]      avg      dev     time         n [     min,      max]      avg      dev    dtime
        'default_lp':         1 [   2.89h,    2.89h]    2.89h   0.00ns    2.89h         2 [  2.02ms,    2.81h]    1.41h    1.41h    2.81h
  'feasibility_pump':     51602 [808.83us, 135.70ms]   1.60ms 719.66us    1.37m     51601 [260.31us, 120.95ms] 262.65us 531.31us   13.55s
                'fj':     38357 [ 92.96ms, 222.03ms] 134.53ms  10.97ms    1.43h     38357 [100.00ms, 100.13ms] 100.02ms  12.57us    1.07h
            'max_lp':         1 [   2.89h,    2.89h]    2.89h   0.00ns    2.89h         2 [ 78.15ms,    3.89h]    1.94h    1.94h    3.89h
             'no_lp':         1 [   2.89h,    2.89h]    2.89h   0.00ns    2.89h         2 [  1.63ms,    6.01h]    3.00h    3.00h    6.01h
         'rins/rens':     49905 [788.00us, 232.04ms] 103.40ms  40.36ms    1.43h     49886 [ 99.09us, 100.36ms]  66.51ms  38.60ms   55.30m

Search stats     Bools   Conflicts    Branches  Restarts  BacktrackToRoot   Backtrack     BoolPropag  IntegerPropag
  'default_lp':    478     910'208  13'919'865     4'919        2'059'190   3'455'276    158'137'541    146'384'292
      'max_lp':    478     483'187  17'774'694     2'378        2'657'346   3'752'227    190'890'538    185'008'250
       'no_lp':    478  63'010'720  80'250'202   196'599        1'038'697  63'656'391  4'931'635'052    957'809'441

SAT formula      Fixed  Equiv  Total  VarLeft  BinaryClauses  PermanentClauses  TemporaryClauses
  'default_lp':      4      2    478      472          2'540           105'481             7'804
      'max_lp':      4      2    478      472          2'540           105'417             6'971
       'no_lp':      4      2    478      472          2'540           282'500            15'051

SAT stats        ClassicMinim     LitRemoved  LitRemovedBinary     LitLearned   LitForgotten    Subsumed
  'default_lp':       790'570     10'826'334         7'285'178     30'845'838     22'245'279     303'501
      'max_lp':       423'103      6'038'554         3'561'135     13'866'617      9'956'549     128'990
       'no_lp':    56'893'340  1'064'472'290       479'819'711  1'609'316'652  1'318'815'043  15'850'827

Vivification       Clauses   Decisions  LitTrue  Subsumed  LitRemoved  DecisionReused  Conflicts
  'default_lp':  1'962'576  12'159'254        2    23'576     292'053         489'161      2'449
      'max_lp':  2'437'495  16'310'909        0    27'037     331'734         564'294      2'419
       'no_lp':    627'727   5'545'378        0    43'776     601'026         124'799      1'884

Clause deletion    at_true  l_and_not(l)  to_binary  sub_conflict  sub_extra  sub_decisions  sub_eager  sub_vivify  sub_probing  sub_inpro  blocked  eliminated   forgotten     promoted   conflicts
    'default_lp':    4'500             0          2       298'041      2'353          8'437      5'460      23'576        1'918     27'030        0           0     557'657    1'859'139     910'208
        'max_lp':    5'014             0          3       127'084      1'195          2'296      1'906      27'037        1'600     17'399        0           0     318'439    1'052'358     483'187
         'no_lp':    9'203             0          2    15'574'471     98'836        589'273    276'356      43'776        3'694    123'246        0           0  46'010'074  142'302'846  63'010'720

Lp stats         Component   Iterations  AddedCuts    OPTIMAL  DUAL_F.  DUAL_U.
  'default_lp':          1  121'479'641    371'102  1'382'684        3  746'201
      'max_lp':          1   65'803'816    341'227    179'625  442'925  150'132

Lp dimension        Final dimension of first component
  'default_lp':   374 rows, 341 columns, 12570 entries
      'max_lp':  1967 rows, 478 columns, 33586 entries

Lp debug         CutPropag  CutEqPropag   Adjust  Overflow        Bad  BadScaling
  'default_lp':          0          370  745'749         0  7'678'277           0
      'max_lp':          0          804  150'061         0  8'502'461           0

Lp pool          Constraints  Updates  Simplif  Merged  Shortened  Split  Strengthened        Cuts/Call
  'default_lp':        9'872   87'581        0       0        700      0             0  371'102/395'503
      'max_lp':       12'318  102'634        0       3        187      0         7'225  341'227/433'463

Lp Cut           default_lp   max_lp
         CG_FF:       4'187      267
          CG_K:       2'098       11
         CG_KL:       2'110        5
          CG_R:       4'477      174
        Clique:           -      378
      MIR_1_FF:       2'433    2'309
       MIR_1_K:         518       69
      MIR_1_KL:       1'849       92
       MIR_1_R:       2'303      990
     MIR_1_RLT:           -   42'541
      MIR_2_FF:       2'720    2'900
       MIR_2_K:         607      484
      MIR_2_KL:       1'620      309
       MIR_2_R:       4'918    2'654
      MIR_3_FF:       1'123      784
       MIR_3_K:         181      109
      MIR_3_KL:         399       57
       MIR_3_R:       2'791    1'048
      MIR_4_FF:         309      235
       MIR_4_K:          58       40
      MIR_4_KL:         108        8
       MIR_4_R:       2'335      844
      MIR_5_FF:         129       75
       MIR_5_K:          28       17
      MIR_5_KL:          19        5
       MIR_5_R:       1'771      740
      MIR_6_FF:          78       25
       MIR_6_K:          19       10
      MIR_6_KL:           8        2
       MIR_6_R:       1'330      757
  ZERO_HALF_FF:       1'765    1'971
   ZERO_HALF_K:         215       32
  ZERO_HALF_KL:         406       15
   ZERO_HALF_R:     328'190  281'270

LNS stats       Improv/Calls  Closed  Difficulty  TimeLimit
  'rins/rens':   49895/49895     50%    7.83e-01       0.10

LS stats                                    Batches  Restarts/Perturbs    LinMoves    GenMoves  CompoundMoves   Bactracks  WeightUpdates  ScoreComputed
                             'fj_restart':    2'339                445  68'789'965           0              0           0     72'564'811        770'583
                    'fj_restart_compound':    2'158                423           0  26'908'037      1'160'973  12'872'583         68'680    409'854'447
                'fj_restart_compound_obj':    1'887                451           0  22'910'454      1'156'823  10'875'867         58'064    358'232'086
            'fj_restart_compound_perturb':    5'013                425           0  60'925'286      1'330'613  29'796'453        215'584    955'262'274
        'fj_restart_compound_perturb_obj':    2'411                407           0  29'719'377      1'104'936  14'306'375         83'608    457'557'866
                       'fj_restart_decay':    2'554                422  95'853'852           0              0           0      4'128'213      4'720'239
              'fj_restart_decay_compound':    1'778                414           0  23'588'969      3'874'829   9'856'055         24'965    341'318'582
          'fj_restart_decay_compound_obj':    3'077                458           0  42'188'269      6'935'286  17'625'363         42'994    592'527'069
      'fj_restart_decay_compound_perturb':    1'916                434           0  25'580'098      4'194'418  10'691'716         26'993    368'066'268
  'fj_restart_decay_compound_perturb_obj':    2'111                402           0  28'513'033      4'684'169  11'913'465         29'618    406'034'158
                   'fj_restart_decay_obj':    2'131                467  79'939'120           0              0           0      3'443'347      3'924'016
               'fj_restart_decay_perturb':    1'784                415  66'932'856           0              0           0      2'883'244      3'274'399
           'fj_restart_decay_perturb_obj':    2'086                414  78'269'400           0              0           0      3'370'602      3'842'735
                         'fj_restart_obj':    2'662                460  76'943'992           0              0           0     81'583'481        840'939
                     'fj_restart_perturb':    2'142                400  60'877'718           0              0           0     67'240'740        652'729
                 'fj_restart_perturb_obj':    2'308                445  65'923'108           0              0           0     71'982'758        724'788

Solution repositories    Added  Queried  Synchro
    'alternative_path':      0        0        0
      'best_solutions':      0        0        0
   'fj solution hints':  6'874        0    6'874
        'lp solutions':  5'977   49'905    5'970
                'pump':      0        0

Improving bounds shared    Num  Sym
            'default_lp':    4    0

Clauses shared    #Exported  #Imported  #BinaryRead  #BinaryTotal
   'default_lp':      5'666    130'441          413           413
       'max_lp':      6'412    129'505          413           413
        'no_lp':    126'796     14'177          413           413

LRAT_status: NA
CpSolverResponse summary:
status: UNKNOWN
objective: NA
best_bound: NA
integers: 341
booleans: 478
conflicts: 910208
branches: 13919865
propagations: 158137541
integer_propagations: 146384292
restarts: 4919
lp_iterations: 121479641
walltime: 10410.1
usertime: 10410.1
deterministic_time: 52915.6
gap_integral: 0

{
  "board_size": 22,
  "parity_proved": 0,
  "target": 34,
  "child_id": 1192,
  "child_count": 2640,
  "partition": "unknown_pair_x_diag_plus_twos_x_diag_minus_twos",
  "build_seconds": 0.08032679557800293,
  "workers": 4,
  "requested_seed": 2026073392,
  "effective_seed": 2026073392,
  "main_diagonal_pair": [
    3,
    5
  ],
  "pair_index": 58,
  "diag_plus_twos": 16,
  "diag_minus_twos": 16,
  "pair_excess": 0,
  "residual_certificate_slack": 112,
  "analytic_minimum_line_defect": 24,
  "analytic_defect_details": {
    "row_costs": {
      "12": 6,
      "13": 3,
      "14": 0,
      "15": 0,
      "16": 0,
      "17": 0
    },
    "column_costs": {
      "12": 6,
      "13": 3,
      "14": 0,
      "15": 0,
      "16": 0,
      "17": 0
    },
    "plus_cost": 24,
    "minus_cost": 0,
    "row_column_minimum": 0
  },
  "maximal_line_constraints": 2455,
  "analytic_infeasible": false,
  "allowed_points": 242,
  "status": "UNKNOWN",
  "proof_method": "cp_sat_all_lines_with_certificate_profile_cuts",
  "elapsed_seconds": 10410.068797826767,
  "branches": 13919865,
  "conflicts": 910208
}
